caseWidth=10;
caseHeight=10;
caseCapacity=100;
n=20;
price=[57 38 62 80 29 16 51 96 80 83 10 43 9 53 92 48 84 73 5 87];
weight=[14 1 10 1 10 18 7 4 17 2 17 6 4 11 6 2 18 16 13 5];
side=[1 1 2 2 4 1 4 3 3 3 1 2 4 3 1 2 2 2 3 3];
